NAME          
ROWS
 N  OBJ
 L  c1
COLUMNS
    MARKER    'MARKER'                 'INTORG'
    x[1]      c1        441
    x[1]      OBJ       -92
    x[2]      c1        478
    x[2]      OBJ       -668
    x[3]      c1        763
    x[3]      OBJ       -878
    x[4]      c1        268
    x[4]      OBJ       -485
    x[5]      c1        450
    x[5]      OBJ       -885
    x[6]      c1        627
    x[6]      OBJ       -705
    x[7]      c1        506
    x[7]      OBJ       -454
    x[8]      c1        521
    x[8]      OBJ       -124
    x[9]      c1        740
    x[9]      OBJ       -282
    x[10]     c1        120
    x[10]     OBJ       -606
    x[11]     c1        288
    x[11]     OBJ       -143
    x[12]     c1        918
    x[12]     OBJ       -751
    x[13]     c1        438
    x[13]     OBJ       -38
    x[14]     c1        319
    x[14]     OBJ       -300
    x[15]     c1        400
    x[15]     OBJ       -438
    x[16]     c1        348
    x[16]     OBJ       -56
    x[17]     c1        980
    x[17]     OBJ       -135
    x[18]     c1        22
    x[18]     OBJ       -672
    x[19]     c1        214
    x[19]     OBJ       -198
    x[20]     c1        5
    x[20]     OBJ       -478
    x[21]     c1        41
    x[21]     OBJ       -988
    x[22]     c1        845
    x[22]     OBJ       -646
    x[23]     c1        97
    x[23]     OBJ       -525
    x[24]     c1        50
    x[24]     OBJ       -234
    x[25]     c1        323
    x[25]     OBJ       -585
    x[26]     c1        758
    x[26]     OBJ       -536
    x[27]     c1        220
    x[27]     OBJ       -795
    x[28]     c1        294
    x[28]     OBJ       -355
    x[29]     c1        987
    x[29]     OBJ       -697
    x[30]     c1        433
    x[30]     OBJ       -226
    x[31]     c1        14
    x[31]     OBJ       -372
    x[32]     c1        999
    x[32]     OBJ       -362
    x[33]     c1        989
    x[33]     OBJ       -841
    x[34]     c1        1
    x[34]     OBJ       -59
    x[35]     c1        451
    x[35]     OBJ       -268
    x[36]     c1        498
    x[36]     OBJ       -684
    x[37]     c1        473
    x[37]     OBJ       -555
    x[38]     c1        680
    x[38]     OBJ       -371
    x[39]     c1        841
    x[39]     OBJ       -282
    x[40]     c1        700
    x[40]     OBJ       -261
    x[41]     c1        510
    x[41]     OBJ       -318
    x[42]     c1        738
    x[42]     OBJ       -245
    x[43]     c1        418
    x[43]     OBJ       -528
    x[44]     c1        680
    x[44]     OBJ       -339
    x[45]     c1        477
    x[45]     OBJ       -32
    x[46]     c1        212
    x[46]     OBJ       -469
    x[47]     c1        685
    x[47]     OBJ       -468
    x[48]     c1        463
    x[48]     OBJ       -562
    x[49]     c1        262
    x[49]     OBJ       -786
    x[50]     c1        272
    x[50]     OBJ       -35
    x[51]     c1        919
    x[51]     OBJ       -641
    x[52]     c1        143
    x[52]     OBJ       -734
    x[53]     c1        518
    x[53]     OBJ       -777
    x[54]     c1        521
    x[54]     OBJ       -725
    x[55]     c1        352
    x[55]     OBJ       -594
    x[56]     c1        414
    x[56]     OBJ       -395
    x[57]     c1        82
    x[57]     OBJ       -796
    x[58]     c1        172
    x[58]     OBJ       -675
    x[59]     c1        910
    x[59]     OBJ       -354
    x[60]     c1        788
    x[60]     OBJ       -600
    x[61]     c1        923
    x[61]     OBJ       -439
    x[62]     c1        432
    x[62]     OBJ       -469
    x[63]     c1        16
    x[63]     OBJ       -140
    x[64]     c1        499
    x[64]     OBJ       -291
    x[65]     c1        966
    x[65]     OBJ       -490
    x[66]     c1        778
    x[66]     OBJ       -996
    x[67]     c1        263
    x[67]     OBJ       -984
    x[68]     c1        356
    x[68]     OBJ       -187
    x[69]     c1        338
    x[69]     OBJ       -708
    x[70]     c1        567
    x[70]     OBJ       -649
    x[71]     c1        680
    x[71]     OBJ       -14
    x[72]     c1        613
    x[72]     OBJ       -741
    x[73]     c1        578
    x[73]     OBJ       -444
    x[74]     c1        160
    x[74]     OBJ       -965
    x[75]     c1        112
    x[75]     OBJ       -867
RHS
    rhs       c1        17678
RANGES
BOUNDS
 LO bounds    x[1]      0
 PL bounds    x[1]
 LO bounds    x[2]      0
 PL bounds    x[2]
 LO bounds    x[3]      0
 PL bounds    x[3]
 LO bounds    x[4]      0
 PL bounds    x[4]
 LO bounds    x[5]      0
 PL bounds    x[5]
 LO bounds    x[6]      0
 PL bounds    x[6]
 LO bounds    x[7]      0
 PL bounds    x[7]
 LO bounds    x[8]      0
 PL bounds    x[8]
 LO bounds    x[9]      0
 PL bounds    x[9]
 LO bounds    x[10]     0
 PL bounds    x[10]
 LO bounds    x[11]     0
 PL bounds    x[11]
 LO bounds    x[12]     0
 PL bounds    x[12]
 LO bounds    x[13]     0
 PL bounds    x[13]
 LO bounds    x[14]     0
 PL bounds    x[14]
 LO bounds    x[15]     0
 PL bounds    x[15]
 LO bounds    x[16]     0
 PL bounds    x[16]
 LO bounds    x[17]     0
 PL bounds    x[17]
 LO bounds    x[18]     0
 PL bounds    x[18]
 LO bounds    x[19]     0
 PL bounds    x[19]
 LO bounds    x[20]     0
 PL bounds    x[20]
 LO bounds    x[21]     0
 PL bounds    x[21]
 LO bounds    x[22]     0
 PL bounds    x[22]
 LO bounds    x[23]     0
 PL bounds    x[23]
 LO bounds    x[24]     0
 PL bounds    x[24]
 LO bounds    x[25]     0
 PL bounds    x[25]
 LO bounds    x[26]     0
 PL bounds    x[26]
 LO bounds    x[27]     0
 PL bounds    x[27]
 LO bounds    x[28]     0
 PL bounds    x[28]
 LO bounds    x[29]     0
 PL bounds    x[29]
 LO bounds    x[30]     0
 PL bounds    x[30]
 LO bounds    x[31]     0
 PL bounds    x[31]
 LO bounds    x[32]     0
 PL bounds    x[32]
 LO bounds    x[33]     0
 PL bounds    x[33]
 LO bounds    x[34]     0
 PL bounds    x[34]
 LO bounds    x[35]     0
 PL bounds    x[35]
 LO bounds    x[36]     0
 PL bounds    x[36]
 LO bounds    x[37]     0
 PL bounds    x[37]
 LO bounds    x[38]     0
 PL bounds    x[38]
 LO bounds    x[39]     0
 PL bounds    x[39]
 LO bounds    x[40]     0
 PL bounds    x[40]
 LO bounds    x[41]     0
 PL bounds    x[41]
 LO bounds    x[42]     0
 PL bounds    x[42]
 LO bounds    x[43]     0
 PL bounds    x[43]
 LO bounds    x[44]     0
 PL bounds    x[44]
 LO bounds    x[45]     0
 PL bounds    x[45]
 LO bounds    x[46]     0
 PL bounds    x[46]
 LO bounds    x[47]     0
 PL bounds    x[47]
 LO bounds    x[48]     0
 PL bounds    x[48]
 LO bounds    x[49]     0
 PL bounds    x[49]
 LO bounds    x[50]     0
 PL bounds    x[50]
 LO bounds    x[51]     0
 PL bounds    x[51]
 LO bounds    x[52]     0
 PL bounds    x[52]
 LO bounds    x[53]     0
 PL bounds    x[53]
 LO bounds    x[54]     0
 PL bounds    x[54]
 LO bounds    x[55]     0
 PL bounds    x[55]
 LO bounds    x[56]     0
 PL bounds    x[56]
 LO bounds    x[57]     0
 PL bounds    x[57]
 LO bounds    x[58]     0
 PL bounds    x[58]
 LO bounds    x[59]     0
 PL bounds    x[59]
 LO bounds    x[60]     0
 PL bounds    x[60]
 LO bounds    x[61]     0
 PL bounds    x[61]
 LO bounds    x[62]     0
 PL bounds    x[62]
 LO bounds    x[63]     0
 PL bounds    x[63]
 LO bounds    x[64]     0
 PL bounds    x[64]
 LO bounds    x[65]     0
 PL bounds    x[65]
 LO bounds    x[66]     0
 PL bounds    x[66]
 LO bounds    x[67]     0
 PL bounds    x[67]
 LO bounds    x[68]     0
 PL bounds    x[68]
 LO bounds    x[69]     0
 PL bounds    x[69]
 LO bounds    x[70]     0
 PL bounds    x[70]
 LO bounds    x[71]     0
 PL bounds    x[71]
 LO bounds    x[72]     0
 PL bounds    x[72]
 LO bounds    x[73]     0
 PL bounds    x[73]
 LO bounds    x[74]     0
 PL bounds    x[74]
 LO bounds    x[75]     0
 PL bounds    x[75]
ENDATA
